MEMORY 10 GB

molecule dimer {
0 1
C    2.303132   0.769097   0.598623
C    1.771037  -0.610986   0.306818
O    1.096965  -0.672425  -0.955992
H    1.720340  -0.407252  -1.638962
H    2.779410   0.788335   1.576531
H    1.492158   1.491832   0.589266
H    3.046547   1.060996  -0.141675
H    1.016509  -0.890517   1.035624
H    2.564219  -1.357732   0.335502
--
0 1
C   -2.486563  -0.563290   0.793465
C   -2.621707   0.689268  -0.042093
O   -1.410247   1.421219  -0.110320
H   -0.741735   0.835538  -0.494238
H   -3.436932  -1.090824   0.854878
H   -2.164895  -0.310367   1.800826
H   -1.753912  -1.236303   0.352439
H   -3.353743   1.361197   0.398697
H   -2.971570   0.432884  -1.044754

units ang
no_reorient
no_com
symmetry c1
}

set {
basis        aug-cc-pVTZ
scf_type     df
}

energy("sapt2+")
