MEMORY 10 GB

molecule dimer {
0 1
C    2.297874   0.764775   0.613975
C    1.784055  -0.615994   0.294242
O    1.098520  -0.657345  -0.963334
H    1.710560  -0.364004  -1.645112
H    2.782641   0.768482   1.587838
H    1.476332   1.475385   0.628257
H    3.030113   1.085272  -0.125587
H    1.041193  -0.924863   1.023196
H    2.588632  -1.350869   0.297163
--
0 1
C   -1.649154  -1.260642   0.513322
C   -1.787110  -0.011200  -0.326450
O   -0.578989   0.725966  -0.392569
H    0.095424   0.139811  -0.765758
H   -2.597471  -1.791843   0.574116
H   -1.330705  -1.003450   1.520609
H   -0.912988  -1.932263   0.076036
H   -2.524206   0.658323   0.109489
H   -2.132128  -0.272596  -1.329501

units ang
no_reorient
no_com
symmetry c1
}

set {
basis        aug-cc-pVTZ
scf_type     df
}

energy("sapt2+")
