MEMORY 10 GB

molecule dimer {
0 1
C    2.297874   0.764775   0.613975
C    1.784055  -0.615994   0.294242
O    1.098520  -0.657345  -0.963334
H    1.710560  -0.364004  -1.645112
H    2.782641   0.768482   1.587838
H    1.476332   1.475385   0.628257
H    3.030113   1.085272  -0.125587
H    1.041193  -0.924863   1.023196
H    2.588632  -1.350869   0.297163
--
0 1
C   -2.068531  -0.914814   0.656013
C   -2.206487   0.334628  -0.183759
O   -0.998366   1.071794  -0.249878
H   -0.323953   0.485639  -0.623067
H   -3.016848  -1.446015   0.716807
H   -1.750082  -0.657622   1.663300
H   -1.332365  -1.586435   0.218727
H   -2.943583   1.004151   0.252180
H   -2.551505   0.073232  -1.186810

units ang
no_reorient
no_com
symmetry c1
}

set {
basis        aug-cc-pVTZ
scf_type     df
}

energy("sapt2+")
