MEMORY 10 GB

molecule dimer {
0 1
C    2.297874   0.764775   0.613975
C    1.784055  -0.615994   0.294242
O    1.098520  -0.657345  -0.963334
H    1.710560  -0.364004  -1.645112
H    2.782641   0.768482   1.587838
H    1.476332   1.475385   0.628257
H    3.030113   1.085272  -0.125587
H    1.041193  -0.924863   1.023196
H    2.588632  -1.350869   0.297163
--
0 1
C   -1.858842  -1.087728   0.584667
C   -1.996798   0.161714  -0.255105
O   -0.788677   0.898880  -0.321224
H   -0.114264   0.312725  -0.694413
H   -2.807159  -1.618929   0.645461
H   -1.540393  -0.830536   1.591954
H   -1.122676  -1.759349   0.147381
H   -2.733894   0.831237   0.180834
H   -2.341816  -0.099682  -1.258156

units ang
no_reorient
no_com
symmetry c1
}

set {
basis        aug-cc-pVTZ
scf_type     df
}

energy("sapt2+")
