MEMORY 10 GB

molecule dimer {
0 1
C    2.303132   0.769097   0.598623
C    1.771037  -0.610986   0.306818
O    1.096965  -0.672425  -0.955992
H    1.720340  -0.407252  -1.638962
H    2.779410   0.788335   1.576531
H    1.492158   1.491832   0.589266
H    3.046547   1.060996  -0.141675
H    1.016509  -0.890517   1.035624
H    2.564219  -1.357732   0.335502
--
0 1
C   -2.277628  -0.737761   0.722993
C   -2.412772   0.514797  -0.112565
O   -1.201312   1.246748  -0.180792
H   -0.532800   0.661067  -0.564710
H   -3.227997  -1.265295   0.784406
H   -1.955960  -0.484838   1.730354
H   -1.544977  -1.410774   0.281967
H   -3.144808   1.186726   0.328225
H   -2.762635   0.258413  -1.115226

units ang
no_reorient
no_com
symmetry c1
}

set {
basis        aug-cc-pVTZ
scf_type     df
}

energy("sapt2+")
