MEMORY 10 GB

molecule dimer {
0 1
C    2.303132   0.769097   0.598623
C    1.771037  -0.610986   0.306818
O    1.096965  -0.672425  -0.955992
H    1.720340  -0.407252  -1.638962
H    2.779410   0.788335   1.576531
H    1.492158   1.491832   0.589266
H    3.046547   1.060996  -0.141675
H    1.016509  -0.890517   1.035624
H    2.564219  -1.357732   0.335502
--
0 1
C   -2.068694  -0.912231   0.652520
C   -2.203838   0.340327  -0.183038
O   -0.992378   1.072278  -0.251265
H   -0.323866   0.486597  -0.635183
H   -3.019063  -1.439765   0.713933
H   -1.747026  -0.659308   1.659881
H   -1.336043  -1.585244   0.211494
H   -2.935874   1.012256   0.257752
H   -2.553701   0.083943  -1.185699

units ang
no_reorient
no_com
symmetry c1
}

set {
basis        aug-cc-pVTZ
scf_type     df
}

energy("sapt2+")
