MEMORY 10 GB

molecule dimer {
0 1
C    1.233757   0.958573   0.577689
C    1.835635  -0.327214   0.088019
O    3.078182  -0.036974  -0.510572
H    3.484073  -0.853727  -0.806230
H    0.274099   0.763320   1.060038
H    1.077092   1.648204  -0.254963
H    1.899837   1.441573   1.294739
H    1.154875  -0.805792  -0.634716
H    1.954699  -1.027544   0.928295
--
0 1
C   -2.639490   0.875680  -0.242922
C   -1.910773  -0.403057  -0.543748
O   -1.556196  -1.000904   0.685198
H   -1.097021  -1.825559   0.512729
H   -2.944203   1.375097  -1.163798
H   -1.998952   1.555755   0.322279
H   -3.530574   0.675281   0.354545
H   -1.015306  -0.193014  -1.149039
H   -2.549285  -1.074466  -1.135123

units ang
no_reorient
no_com
symmetry c1
}

set {
basis        aug-cc-pVTZ
scf_type     df
}

energy("sapt2+")
