MEMORY 10 GB

molecule dimer {
0 1
C   -1.963748   1.265020   0.028353
C   -2.365107  -0.173974   0.233460
O   -1.621145  -1.064613  -0.568591
H   -1.732855  -0.809637  -1.488026
H   -2.544648   1.931845   0.668723
H   -2.132959   1.572447  -1.008276
H   -0.904374   1.406432   0.254396
H   -3.443328  -0.299177   0.059353
H   -2.177816  -0.477973   1.267136
--
0 1
C    1.310325  -0.415454   1.080624
C    1.739443  -0.185319  -0.339788
O    2.987505   0.473444  -0.322679
H    3.279455   0.612922  -1.225116
H    0.352608  -0.937769   1.101386
H    1.209457   0.535502   1.609213
H    2.051543  -1.016275   1.610802
H    0.982179   0.415920  -0.865441
H    1.804386  -1.146516  -0.869892

units ang
no_reorient
no_com
symmetry c1
}

set {
basis        aug-cc-pVTZ
scf_type     df
}

energy("sapt2+")
