MEMORY 10 GB

molecule dimer {
0 1
C   -2.332286  -0.594162   0.929414
C   -2.038118  -0.377989  -0.533495
O   -1.475161   0.890451  -0.788886
H   -2.094483   1.562221  -0.492265
H   -2.733929  -1.593604   1.108203
H   -3.069870   0.128721   1.290606
H   -1.424938  -0.475656   1.526138
H   -2.945777  -0.531245  -1.134126
H   -1.302113  -1.105115  -0.887403
--
0 1
C    1.600232   1.006966   0.722156
C    1.552024  -0.208091  -0.168267
O    2.796806  -0.864677  -0.265303
H    3.442184  -0.233382  -0.592657
H    0.612136   1.466607   0.787680
H    2.290966   1.755571   0.321755
H    1.938943   0.739349   1.725339
H    1.165155   0.068699  -1.158971
H    0.857453  -0.948704   0.240370

units ang
no_reorient
no_com
symmetry c1
}

set {
basis        aug-cc-pVTZ
scf_type     df
}

energy("sapt2+")
