MEMORY 10 GB

molecule dimer {
0 1
C   -2.487597   0.608687  -0.583554
C   -1.837698  -0.656164  -0.076304
O   -1.085446  -0.443379   1.089982
H   -0.371751   0.172884   0.864426
H   -3.099850   0.414336  -1.467330
H   -1.727073   1.345474  -0.856583
H   -3.123218   1.046984   0.188632
H   -1.216734  -1.099176  -0.871686
H   -2.598797  -1.401041   0.175005
--
0 1
C    1.918981  -1.043395  -0.470114
C    2.292208   0.315008   0.050278
O    1.116813   1.110588   0.084284
H    1.332036   1.988261   0.406597
H    2.794996  -1.691769  -0.514538
H    1.498225  -0.964042  -1.474590
H    1.173296  -1.510155   0.177450
H    3.044584   0.782449  -0.598000
H    2.727986   0.233302   1.054655

units ang
no_reorient
no_com
symmetry c1
}

set {
basis        aug-cc-pVTZ
scf_type     df
}

energy("sapt2+")
