MEMORY 10 GB

molecule dimer {
0 1
C   -1.193277  -0.706714   0.501279
C   -2.076043  -0.011608  -0.503934
O   -3.268800   0.479011   0.065369
H   -3.727558  -0.256160   0.479429
H   -0.252172  -1.025888   0.044345
H   -1.690324  -1.592920   0.908402
H   -0.966587  -0.037044   1.334894
H   -2.289579  -0.682301  -1.348864
H   -1.564720   0.860285  -0.921796
--
0 1
C    1.909877   1.326801  -0.067993
C    2.404113   0.002593   0.440661
O    2.144878  -0.968276  -0.551699
H    2.497641  -1.812724  -0.264602
H    2.090757   2.116631   0.662536
H    0.836941   1.282336  -0.267517
H    2.415726   1.591170  -0.998192
H    1.893826  -0.254203   1.381037
H    3.479404   0.058505   0.660893

units ang
no_reorient
no_com
symmetry c1
}

set {
basis        aug-cc-pVTZ
scf_type     df
}

energy("sapt2+")
