MEMORY 10 GB

molecule dimer {
0 1
C   -2.238295  -0.891233   0.270374
C   -1.634164   0.196707  -0.579583
O   -1.258240   1.328567   0.180839
H   -2.031489   1.643969   0.655470
H   -2.490229  -1.765300  -0.333306
H   -3.156000  -0.546994   0.757987
H   -1.536574  -1.205588   1.045787
H   -2.325259   0.483848  -1.384965
H   -0.716836  -0.166607  -1.050354
--
0 1
C    2.204068   0.925718  -0.184110
C    1.625578  -0.240101   0.574992
O    1.303689  -1.328256  -0.269274
H    2.092839  -1.573245  -0.759082
H    2.419202   1.760279   0.486142
H    1.499722   1.273872  -0.941991
H    3.138932   0.647749  -0.681409
H    0.687535   0.058665   1.050497
H    2.311441  -0.559684   1.372672

units ang
no_reorient
no_com
symmetry c1
}

set {
basis        aug-cc-pVTZ
scf_type     df
}

energy("sapt2+")
