MEMORY 10 GB

molecule dimer {
0 1
C   -2.285309  -0.761088  -0.427513
C   -1.714720   0.631558  -0.309701
O   -1.072778   0.847664   0.919368
H   -0.398112   0.158472   1.022803
H   -2.793669  -0.903055  -1.383934
H   -2.999897  -0.949525   0.376126
H   -1.490434  -1.508978  -0.350374
H   -2.510620   1.378697  -0.382830
H   -1.030152   0.827401  -1.153322
--
0 1
C    2.153779   0.895609  -0.350996
C    1.675674  -0.525792  -0.494537
O    1.106631  -1.028888   0.703835
H    1.772442  -1.000822   1.396537
H    2.547837   1.271404  -1.297171
H    2.954107   0.965752   0.391475
H    1.334010   1.543107  -0.031210
H    2.486286  -1.183106  -0.833936
H    0.880838  -0.591278  -1.243298

units ang
no_reorient
no_com
symmetry c1
}

set {
basis        aug-cc-pVTZ
scf_type     df
}

energy("sapt2+")
