MEMORY 10 GB

molecule dimer {
0 1
C    1.309013   1.134015  -0.188218
C    1.724146  -0.315014  -0.195909
O    3.069051  -0.501508   0.179173
H    3.209050  -0.059378   1.020349
H    0.271243   1.257351  -0.509886
H    1.953170   1.720116  -0.846698
H    1.388592   1.553026   0.820473
H    1.634571  -0.733745  -1.202623
H    1.051625  -0.905042   0.447878
--
0 1
C   -1.823592  -1.296449  -0.312637
C   -1.984814  -0.112096   0.605856
O   -2.156708   1.096874  -0.098750
H   -2.908238   1.000912  -0.689351
H   -1.633465  -2.212113   0.251297
H   -0.989131  -1.136448  -0.999502
H   -2.726588  -1.455432  -0.909543
H   -1.083812   0.024514   1.212183
H   -2.814275  -0.279428   1.307478

units ang
no_reorient
no_com
symmetry c1
}

set {
basis        aug-cc-pVTZ
scf_type     df
}

energy("sapt2+")
