MEMORY 10 GB

molecule dimer {
0 1
C    1.664047  -1.098168  -0.483407
C    1.645436   0.172621   0.316483
O    2.803731   0.913154  -0.006258
H    2.810292   1.720736   0.510250
H    0.786578  -1.702859  -0.249187
H    2.561646  -1.677310  -0.258297
H    1.668226  -0.876731  -1.553158
H    1.608592  -0.061279   1.389819
H    0.733727   0.745832   0.090323
--
0 1
C   -2.523852   1.090249  -0.196029
C   -1.977141  -0.294805  -0.431995
O   -1.428621  -0.864125   0.736200
H   -2.110319  -0.890671   1.412321
H   -2.907636   1.526431  -1.120447
H   -1.745682   1.746778   0.199147
H   -3.345613   1.068408   0.525988
H   -1.158836  -0.264706  -1.157724
H   -2.752790  -0.946241  -0.858887

units ang
no_reorient
no_com
symmetry c1
}

set {
basis        aug-cc-pVTZ
scf_type     df
}

energy("sapt2+")
