MEMORY 10 GB

molecule dimer {
0 1
C    1.931029   0.578330   0.958826
C    1.965727   0.223154  -0.499988
O    1.180761  -0.944252  -0.685860
H    1.221035  -1.219217  -1.603930
H    2.525477   1.472677   1.150060
H    2.332495  -0.239373   1.560047
H    0.905552   0.764576   1.285506
H    2.996705   0.041005  -0.829297
H    1.569906   1.051912  -1.104047
--
0 1
C   -1.746207   1.121099  -0.476950
C   -2.174033  -0.252033  -0.013091
O   -1.256421  -0.835427   0.871900
H   -0.431806  -0.990078   0.386917
H   -2.499550   1.576228  -1.124257
H   -0.809659   1.064234  -1.039748
H   -1.584424   1.779019   0.380020
H   -2.353642  -0.900384  -0.885059
H   -3.125905  -0.186473   0.522681

units ang
no_reorient
no_com
symmetry c1
}

set {
basis        aug-cc-pVTZ
scf_type     df
}

energy("sapt2+")
