MEMORY 10 GB

molecule dimer {
0 1
C    3.060548   0.177448  -0.313947
C    1.557544   0.097717  -0.349948
O    1.006369  -0.201892   0.920487
H    1.260914   0.482484   1.544879
H    3.465039   0.367849  -1.309744
H    3.485615  -0.755472   0.059941
H    3.394218   0.988890   0.339300
H    1.223902  -0.709173  -1.007567
H    1.127414   1.028827  -0.745162
--
0 1
C   -2.279661   1.073048   0.209358
C   -1.971739  -0.139988  -0.636391
O   -1.538721  -1.234613   0.124290
H   -0.733445  -0.967396   0.592167
H   -2.653636   1.899566  -0.399499
H   -1.379815   1.416192   0.728692
H   -3.030177   0.831048   0.964493
H   -1.231842   0.125953  -1.409958
H   -2.869521  -0.466075  -1.170188

units ang
no_reorient
no_com
symmetry c1
}

set {
basis        aug-cc-pVTZ
scf_type     df
}

energy("sapt2+")
