MEMORY 10 GB

molecule dimer {
0 1
C   -1.812049  -1.313670  -0.315971
C   -1.974663  -0.127387   0.591559
O   -2.245825   0.998052  -0.214631
H   -2.351964   1.768926   0.346257
H   -1.584770  -2.214270   0.257177
H   -0.998441  -1.140479  -1.024415
H   -2.724973  -1.486699  -0.888315
H   -1.056825   0.024328   1.180454
H   -2.790662  -0.304727   1.306389
--
0 1
C    1.280549   1.136886  -0.192903
C    1.743025  -0.292312  -0.215131
O    3.051475  -0.339538   0.307722
H    3.364688  -1.245527   0.287422
H    0.264456   1.225750  -0.585081
H    1.944384   1.760507  -0.794390
H    1.294339   1.521489   0.829710
H    1.714899  -0.680289  -1.244464
H    1.058495  -0.918225   0.379202

units ang
no_reorient
no_com
symmetry c1
}

set {
basis        aug-cc-pVTZ
scf_type     df
}

energy("sapt2+")
