MEMORY 10 GB

molecule dimer {
0 1
C    1.964053   1.241757  -0.148399
C    2.395908  -0.160787   0.175024
O    1.509715  -1.051482  -0.469393
H    1.789609  -1.952525  -0.297639
H    2.642125   1.969651   0.299603
H    0.957322   1.432443   0.229612
H    1.955326   1.396133  -1.229161
H    2.384615  -0.316654   1.264113
H    3.428691  -0.325209  -0.163468
--
0 1
C   -1.347298  -0.112224   1.186486
C   -1.679387  -0.223148  -0.274172
O   -2.961933   0.333397  -0.473531
H   -3.175255   0.293214  -1.407286
H   -0.358311  -0.531909   1.379124
H   -2.082268  -0.648007   1.790390
H   -1.353725   0.933819   1.501749
H   -1.651432  -1.277524  -0.585129
H   -0.918604   0.297665  -0.872141

units ang
no_reorient
no_com
symmetry c1
}

set {
basis        aug-cc-pVTZ
scf_type     df
}

energy("sapt2+")
