MEMORY 10 GB

molecule dimer {
0 1
C   -2.017771   0.980042   0.536010
C   -1.935956  -0.093822  -0.517098
O   -1.142113  -1.192056  -0.108857
H   -1.491699  -1.541411   0.715301
H   -2.615045   1.824748   0.187717
H   -1.020826   1.345641   0.793407
H   -2.485342   0.598282   1.448301
H   -1.462803   0.290103  -1.424920
H   -2.939158  -0.435743  -0.803051
--
0 1
C    1.674370   1.185617  -0.536867
C    1.878173   0.131763   0.526479
O    1.728993  -1.168601   0.027887
H    0.790317  -1.289550  -0.178936
H    1.807468   2.192948  -0.133917
H    0.664837   1.120067  -0.955195
H    2.381254   1.042797  -1.356350
H    1.191706   0.314903   1.369907
H    2.891355   0.200876   0.934345

units ang
no_reorient
no_com
symmetry c1
}

set {
basis        aug-cc-pVTZ
scf_type     df
}

energy("sapt2+")
