MEMORY 10 GB

molecule dimer {
0 1
C    2.029754   1.123131  -0.290571
C    1.890340  -0.376706  -0.296268
O    1.144521  -0.851246   0.810495
H    1.540555  -0.528261   1.623714
H    2.574105   1.469398  -1.171008
H    2.579304   1.463015   0.592339
H    1.046994   1.600385  -0.283454
H    2.875799  -0.859264  -0.326945
H    1.341500  -0.713398  -1.179928
--
0 1
C   -2.047126   0.925428   0.637739
C   -1.738244   0.151549  -0.621663
O   -1.422060  -1.189958  -0.368607
H   -0.641977  -1.205023   0.205750
H   -2.319559   1.959603   0.413595
H   -1.176827   0.940892   1.300407
H   -2.872421   0.458961   1.179293
H   -0.928504   0.655062  -1.177321
H   -2.607004   0.147853  -1.286962

units ang
no_reorient
no_com
symmetry c1
}

set {
basis        aug-cc-pVTZ
scf_type     df
}

energy("sapt2+")
