MEMORY 10 GB

molecule dimer {
0 1
C    2.584823   0.580861  -0.414759
C    1.760466  -0.661007  -0.173359
O    0.998046  -0.577244   1.001583
H    0.375593   0.156131   0.879066
H    3.189531   0.489143  -1.319989
H    3.250277   0.766859   0.430319
H    1.937739   1.455965  -0.526514
H    2.409824  -1.534677  -0.065270
H    1.117876  -0.858158  -1.048615
--
0 1
C   -2.057266  -0.936950  -0.531782
C   -2.184932   0.344508   0.249614
O   -1.064190   1.198352   0.077039
H   -0.954906   1.372540  -0.862252
H   -2.929025  -1.575620  -0.377756
H   -1.165835  -1.484887  -0.218990
H   -1.982100  -0.734326  -1.604803
H   -2.230479   0.136995   1.321525
H   -3.107893   0.876704  -0.013975

units ang
no_reorient
no_com
symmetry c1
}

set {
basis        aug-cc-pVTZ
scf_type     df
}

energy("sapt2+")
