MEMORY 10 GB

molecule dimer {
0 1
C   -1.831657  -0.837081   0.886327
C   -1.639715  -0.303433  -0.511246
O   -1.708178   1.107656  -0.558073
H   -2.549813   1.383081  -0.185907
H   -1.716619  -1.922841   0.913057
H   -2.829746  -0.599590   1.267641
H   -1.099505  -0.395839   1.567667
H   -2.375171  -0.751537  -1.194355
H   -0.648066  -0.567271  -0.890410
--
0 1
C    1.570030   1.079434   0.625875
C    1.898950  -0.373594   0.394867
O    1.758896  -0.754222  -0.957044
H    2.230812  -0.117480  -1.500073
H    1.646712   1.333345   1.685611
H    0.557707   1.312018   0.284040
H    2.268859   1.724683   0.084118
H    1.212315  -1.015944   0.955554
H    2.911124  -0.602052   0.759050

units ang
no_reorient
no_com
symmetry c1
}

set {
basis        aug-cc-pVTZ
scf_type     df
}

energy("sapt2+")
