MEMORY 10 GB

molecule dimer {
0 1
C   -1.593383  -1.115858   0.591644
C   -1.764270  -0.123712  -0.529372
O   -1.862939   1.204783  -0.058805
H   -2.583391   1.248279   0.574950
H   -1.478930  -2.129891   0.203014
H   -2.458898  -1.109118   1.262035
H   -0.702776  -0.873489   1.176003
H   -2.637502  -0.383753  -1.144722
H   -0.887162  -0.148794  -1.180624
--
0 1
C    1.625389   1.264971   0.088206
C    2.097317  -0.135053   0.361724
O    1.513242  -0.993398  -0.597254
H    1.828698  -1.887056  -0.450836
H    2.084511   1.967305   0.786209
H    0.539622   1.343080   0.186799
H    1.897259   1.562903  -0.926434
H    1.811527  -0.437927   1.380738
H    3.194302  -0.184703   0.308121

units ang
no_reorient
no_com
symmetry c1
}

set {
basis        aug-cc-pVTZ
scf_type     df
}

energy("sapt2+")
