MEMORY 10 GB

molecule dimer {
0 1
C    3.029986   0.386750  -0.297289
C    1.565630   0.042439  -0.343416
O    1.054760  -0.298721   0.935189
H    1.600391  -0.997930   1.306596
H    3.392495   0.683308  -1.283110
H    3.623536  -0.473268   0.026689
H    3.211994   1.206803   0.399565
H    1.373321  -0.767819  -1.059610
H    0.975226   0.901777  -0.673560
--
0 1
C   -2.339283   1.016978   0.390899
C   -2.013114  -0.031171  -0.645695
O   -1.483940  -1.201848  -0.081782
H   -0.699556  -0.953916   0.431255
H   -2.777295   1.906617  -0.067586
H   -1.436124   1.322929   0.927170
H   -3.045323   0.621481   1.123823
H   -1.327143   0.391231  -1.399248
H   -2.917394  -0.326625  -1.186236

units ang
no_reorient
no_com
symmetry c1
}

set {
basis        aug-cc-pVTZ
scf_type     df
}

energy("sapt2+")
