MEMORY 10 GB

molecule dimer {
0 1
C   -2.349038  -1.157925   0.034796
C   -2.056539   0.254134   0.474099
O   -1.466127   1.027122  -0.547162
H   -2.044202   1.012050  -1.314173
H   -2.772715  -1.745591   0.851689
H   -1.437215  -1.650556  -0.309185
H   -3.070166  -1.168403  -0.788025
H   -1.338097   0.256338   1.299576
H   -2.969983   0.735774   0.851362
--
0 1
C    1.812643   1.175608   0.267567
C    1.500073  -0.258318  -0.073084
O    2.656582  -1.052379  -0.216325
H    3.191286  -0.947763   0.574607
H    0.896190   1.767216   0.310822
H    2.472721   1.612217  -0.484809
H    2.313676   1.247640   1.238406
H    0.969069  -0.311788  -1.026278
H    0.822962  -0.686080   0.683636

units ang
no_reorient
no_com
symmetry c1
}

set {
basis        aug-cc-pVTZ
scf_type     df
}

energy("sapt2+")
