MEMORY 10 GB

molecule dimer {
0 1
C    2.138748   0.712657  -0.902723
C    2.081145  -0.614620  -0.189170
O    1.553281  -0.507187   1.113929
H    2.099425   0.104814   1.613925
H    2.527831   0.599419  -1.916656
H    2.793224   1.411820  -0.373605
H    1.144337   1.161585  -0.962749
H    3.075245  -1.083759  -0.172237
H    1.418829  -1.304382  -0.720240
--
0 1
C   -1.559145   1.135554   0.539781
C   -1.531850  -0.244422  -0.052686
O   -2.839384  -0.565039  -0.476687
H   -2.848246  -1.465971  -0.804181
H   -0.566892   1.411612   0.900343
H   -2.256725   1.175374   1.378429
H   -1.882873   1.867786  -0.202973
H   -1.160488  -0.962393   0.690967
H   -0.828227  -0.273113  -0.900172

units ang
no_reorient
no_com
symmetry c1
}

set {
basis        aug-cc-pVTZ
scf_type     df
}

energy("sapt2+")
