MEMORY 10 GB

molecule dimer {
0 1
C    2.297874   0.764775   0.613975
C    1.784055  -0.615994   0.294242
O    1.098520  -0.657345  -0.963334
H    1.710560  -0.364004  -1.645112
H    2.782641   0.768482   1.587838
H    1.476332   1.475385   0.628257
H    3.030113   1.085272  -0.125587
H    1.041193  -0.924863   1.023196
H    2.588632  -1.350869   0.297163
--
0 1
C   -2.487908  -0.568986   0.798704
C   -2.625864   0.680456  -0.041068
O   -1.417743   1.417622  -0.107187
H   -0.743330   0.831467  -0.480376
H   -3.436225  -1.100187   0.859498
H   -2.169459  -0.311794   1.805991
H   -1.751742  -1.240607   0.361418
H   -3.362960   1.349979   0.394871
H   -2.970882   0.419060  -1.044119

units ang
no_reorient
no_com
symmetry c1
}

set {
basis        aug-cc-pVTZ
scf_type     df
}

energy("mp2", bsse_type="cp")
