MEMORY 10 GB

molecule dimer {
0 1
C    2.303132   0.769097   0.598623
C    1.771037  -0.610986   0.306818
O    1.096965  -0.672425  -0.955992
H    1.720340  -0.407252  -1.638962
H    2.779410   0.788335   1.576531
H    1.492158   1.491832   0.589266
H    3.046547   1.060996  -0.141675
H    1.016509  -0.890517   1.035624
H    2.564219  -1.357732   0.335502
--
0 1
C   -1.650825  -1.261172   0.511575
C   -1.785969  -0.008614  -0.323983
O   -0.574509   0.723337  -0.392210
H    0.094003   0.137656  -0.776128
H   -2.601194  -1.788706   0.572988
H   -1.329157  -1.008249   1.518936
H   -0.918174  -1.934185   0.070549
H   -2.518005   0.663315   0.116807
H   -2.135832  -0.264998  -1.326644

units ang
no_reorient
no_com
symmetry c1
}

set {
basis        aug-cc-pVTZ
scf_type     df
}

energy("mp2", bsse_type="cp")
