MEMORY 10 GB

molecule dimer {
0 1
C    2.303132   0.769097   0.598623
C    1.771037  -0.610986   0.306818
O    1.096965  -0.672425  -0.955992
H    1.720340  -0.407252  -1.638962
H    2.779410   0.788335   1.576531
H    1.492158   1.491832   0.589266
H    3.046547   1.060996  -0.141675
H    1.016509  -0.890517   1.035624
H    2.564219  -1.357732   0.335502
--
0 1
C   -2.173161  -0.824996   0.687756
C   -2.308305   0.427562  -0.147802
O   -1.096845   1.159513  -0.216029
H   -0.428333   0.573832  -0.599947
H   -3.123530  -1.352530   0.749169
H   -1.851493  -0.572073   1.695117
H   -1.440510  -1.498009   0.246730
H   -3.040341   1.099491   0.292988
H   -2.658168   0.171178  -1.150463

units ang
no_reorient
no_com
symmetry c1
}

set {
basis        aug-cc-pVTZ
scf_type     df
}

energy("mp2", bsse_type="cp")
