MEMORY 10 GB

molecule dimer {
0 1
C    2.303132   0.769097   0.598623
C    1.771037  -0.610986   0.306818
O    1.096965  -0.672425  -0.955992
H    1.720340  -0.407252  -1.638962
H    2.779410   0.788335   1.576531
H    1.492158   1.491832   0.589266
H    3.046547   1.060996  -0.141675
H    1.016509  -0.890517   1.035624
H    2.564219  -1.357732   0.335502
--
0 1
C   -1.859760  -1.086701   0.582047
C   -1.994904   0.165857  -0.253511
O   -0.783444   0.897808  -0.321738
H   -0.114932   0.312127  -0.705656
H   -2.810129  -1.614235   0.643460
H   -1.538092  -0.833778   1.589408
H   -1.127109  -1.759714   0.141021
H   -2.726940   0.837786   0.187279
H   -2.344767  -0.090527  -1.256172

units ang
no_reorient
no_com
symmetry c1
}

set {
basis        aug-cc-pVTZ
scf_type     df
}

energy("mp2", bsse_type="cp")
