MEMORY 10 GB

molecule dimer {
0 1
C    2.297874   0.764775   0.613975
C    1.784055  -0.615994   0.294242
O    1.098520  -0.657345  -0.963334
H    1.710560  -0.364004  -1.645112
H    2.782641   0.768482   1.587838
H    1.476332   1.475385   0.628257
H    3.030113   1.085272  -0.125587
H    1.041193  -0.924863   1.023196
H    2.588632  -1.350869   0.297163
--
0 1
C   -2.278220  -0.741900   0.727359
C   -2.416176   0.507542  -0.112413
O   -1.208055   1.244708  -0.178532
H   -0.533642   0.658553  -0.551721
H   -3.226537  -1.273101   0.788153
H   -1.959771  -0.484708   1.734646
H   -1.542054  -1.413521   0.290073
H   -3.153272   1.177065   0.323526
H   -2.761194   0.246146  -1.115464

units ang
no_reorient
no_com
symmetry c1
}

set {
basis        aug-cc-pVTZ
scf_type     df
}

energy("mp2", bsse_type="cp")
