MEMORY 10 GB

molecule dimer {
0 1
C    2.165693   1.109782   0.597800
C    1.625379  -0.007612  -0.249428
O    2.608149  -1.019857  -0.311632
H    2.236287  -1.780028  -0.762200
H    1.445574   1.927853   0.666720
H    3.091644   1.501729   0.172386
H    2.382092   0.753756   1.606762
H    1.387906   0.369039  -1.256627
H    0.687995  -0.391938   0.175129
--
0 1
C   -1.886541   1.047214  -0.554735
C   -2.631476  -0.043130   0.162031
O   -1.744207  -1.123737   0.353715
H   -2.190204  -1.814812   0.846678
H   -2.536624   1.902102  -0.746393
H   -1.503486   0.682413  -1.509938
H   -1.036417   1.386367   0.041436
H   -3.504681  -0.354492  -0.429202
H   -3.009958   0.329229   1.124577

units ang
no_reorient
no_com
symmetry c1
}

set {
basis        aug-cc-pVTZ
scf_type     df
}

energy("mp2", bsse_type="cp")
