MEMORY 10 GB

molecule dimer {
0 1
C   -1.571475   1.325677   0.080462
C   -2.336562   0.023495   0.120476
O   -1.625917  -1.040635  -0.455430
H   -0.804526  -1.158176   0.043694
H   -2.159205   2.145253   0.500456
H   -1.309295   1.582539  -0.948909
H   -0.645891   1.241292   0.657383
H   -3.268691   0.115709  -0.445287
H   -2.624120  -0.206211   1.158094
--
0 1
C    2.596905   0.802331  -0.064548
C    1.731028  -0.368377  -0.448393
O    0.990875  -0.868841   0.652397
H    1.594941  -1.212311   1.314848
H    3.132909   1.192021  -0.932073
H    3.341341   0.513082   0.682813
H    1.989728   1.606541   0.355778
H    2.331309  -1.167616  -0.901614
H    0.982471  -0.075066  -1.188895

units ang
no_reorient
no_com
symmetry c1
}

set {
basis        aug-cc-pVTZ
scf_type     df
}

energy("mp2", bsse_type="cp")
