MEMORY 10 GB

molecule dimer {
0 1
C    1.625795   1.155441  -0.267286
C    1.876613  -0.235139   0.256824
O    3.063286  -0.804528  -0.251867
H    3.788701  -0.205797  -0.058033
H    0.682970   1.544136   0.122725
H    1.585213   1.153594  -1.359080
H    2.425436   1.838207   0.037201
H    1.066426  -0.905073  -0.041732
H    1.879815  -0.227843   1.356430
--
0 1
C   -3.312830  -0.085440  -0.406548
C   -1.826379  -0.307294  -0.290228
O   -1.298452   0.193646   0.918383
H   -1.751106  -0.233912   1.649788
H   -3.690820  -0.443188  -1.366367
H   -3.550561   0.975888  -0.314150
H   -3.850088  -0.622055   0.381097
H   -1.296004   0.221932  -1.087215
H   -1.587842  -1.374235  -0.409365

units ang
no_reorient
no_com
symmetry c1
}

set {
basis        aug-cc-pVTZ
scf_type     df
}

energy("mp2", bsse_type="cp")
