MEMORY 10 GB

molecule dimer {
0 1
C    1.516213   0.417723   0.442144
C    2.871854  -0.240916   0.502599
O    3.467762  -0.364839  -0.767183
H    3.553027   0.512554  -1.148413
H    1.054212   0.467584   1.430942
H    0.850827  -0.136694  -0.223863
H    1.596600   1.441461   0.062946
H    2.783288  -1.258406   0.891720
H    3.528345   0.304796   1.195929
--
0 1
C   -2.160843   1.157699  -0.183492
C   -2.171092  -0.335092   0.031517
O   -3.472656  -0.871194   0.050728
H   -3.902426  -0.651722  -0.779695
H   -1.142870   1.552980  -0.150083
H   -2.753797   1.659870   0.583223
H   -2.583803   1.414199  -1.159463
H   -1.730863  -0.583014   1.001293
H   -1.550170  -0.831830  -0.729495

units ang
no_reorient
no_com
symmetry c1
}

set {
basis        aug-cc-pVTZ
scf_type     df
}

energy("mp2", bsse_type="cp")
