MEMORY 10 GB

molecule dimer {
0 1
C   -1.475476   0.559489  -0.311796
C   -2.845680  -0.030863  -0.532347
O   -3.351979  -0.661248   0.620729
H   -3.399111  -0.010457   1.325488
H   -1.080118   1.002664  -1.228730
H   -0.778691  -0.210094   0.028275
H   -1.505016   1.345121   0.449598
H   -2.807199  -0.804793  -1.303177
H   -3.538143   0.741653  -0.897109
--
0 1
C    2.033266   0.985127   0.594046
C    2.482344   0.039189  -0.491480
O    3.199458  -1.062061   0.013739
H    2.638174  -1.527834   0.638715
H    1.511086   1.848424   0.175115
H    2.888577   1.342142   1.170665
H    1.344434   0.487393   1.284161
H    3.161241   0.546368  -1.181959
H    1.618213  -0.291760  -1.087322

units ang
no_reorient
no_com
symmetry c1
}

set {
basis        aug-cc-pVTZ
scf_type     df
}

energy("mp2", bsse_type="cp")
