MEMORY 10 GB

molecule dimer {
0 1
C   -2.657704   0.913790  -0.176094
C   -1.885150  -0.312888  -0.589726
O   -1.497358  -1.104285   0.511985
H   -2.286624  -1.361853   0.995038
H   -2.918253   1.526409  -1.041526
H   -2.069254   1.522685   0.513667
H   -3.589525   0.637946   0.326692
H   -0.955578  -0.026085  -1.090366
H   -2.462428  -0.905448  -1.313311
--
0 1
C    1.215389   0.803162   0.677397
C    1.914559  -0.394247   0.085927
O    3.070109  -0.045258  -0.644100
H    3.655655   0.444291  -0.061235
H    0.297753   0.495728   1.184283
H    0.961446   1.523865  -0.104402
H    1.855335   1.311142   1.405635
H    1.256294  -0.909556  -0.618418
H    2.150606  -1.121693   0.875837

units ang
no_reorient
no_com
symmetry c1
}

set {
basis        aug-cc-pVTZ
scf_type     df
}

energy("mp2", bsse_type="cp")
