MEMORY 10 GB

molecule dimer {
0 1
C   -1.728409   1.254876  -0.147483
C   -2.155839  -0.184467  -0.161942
O   -1.284854  -0.905180   0.697135
H   -1.579809  -1.816618   0.758447
H   -2.379735   1.857622  -0.781622
H   -0.705888   1.354837  -0.519189
H   -1.764807   1.654841   0.867529
H   -2.104620  -0.586825  -1.182497
H   -3.193108  -0.281229   0.182657
--
0 1
C    2.200284   0.356176   0.934402
C    1.925813   0.266620  -0.546673
O    1.131569  -0.840507  -0.881891
H    0.381752  -0.875127  -0.267210
H    2.843390   1.207352   1.168566
H    2.687622  -0.554241   1.289671
H    1.265309   0.476477   1.490262
H    2.861322   0.162718  -1.104886
H    1.463757   1.206462  -0.893503

units ang
no_reorient
no_com
symmetry c1
}

set {
basis        aug-cc-pVTZ
scf_type     df
}

energy("mp2", bsse_type="cp")
