MEMORY 10 GB

molecule dimer {
0 1
C   -2.047742   1.200587  -0.071445
C   -2.243318  -0.219666  -0.521783
O   -1.615977  -1.063864   0.419499
H   -1.731882  -1.977182   0.150940
H   -2.536756   1.896868  -0.754295
H   -0.984032   1.446270  -0.031153
H   -2.464672   1.343588   0.927225
H   -1.812160  -0.360768  -1.523832
H   -3.316117  -0.447358  -0.597375
--
0 1
C    1.488247   0.250942   1.173895
C    1.616273  -0.255164  -0.239503
O    2.892363  -0.020660  -0.792010
H    3.090590   0.914597  -0.700112
H    0.503617   0.009156   1.578517
H    1.610407   1.338850   1.210501
H    2.253336  -0.194460   1.813035
H    0.827640   0.184015  -0.870042
H    1.468182  -1.337578  -0.270308

units ang
no_reorient
no_com
symmetry c1
}

set {
basis        aug-cc-pVTZ
scf_type     df
}

energy("mp2", bsse_type="cp")
