MEMORY 10 GB

molecule dimer {
0 1
C   -1.798382   1.057763  -0.551942
C   -1.814818  -0.406295  -0.189193
O   -3.049397  -0.818684   0.346059
H   -3.242730  -0.276030   1.114633
H   -0.850112   1.341314  -1.015457
H   -1.931597   1.681753   0.337635
H   -2.605197   1.289255  -1.249672
H   -0.988671  -0.633582   0.502743
H   -1.653153  -1.020307  -1.079540
--
0 1
C    1.629798   0.588371   1.028772
C    1.941199   0.106999  -0.366559
O    3.130895  -0.641920  -0.428788
H    3.045305  -1.396141   0.159733
H    0.731724   1.211321   1.040556
H    2.460966   1.172875   1.427467
H    1.456130  -0.256248   1.703056
H    2.086917   0.957394  -1.038537
H    1.091649  -0.467795  -0.767251

units ang
no_reorient
no_com
symmetry c1
}

set {
basis        aug-cc-pVTZ
scf_type     df
}

energy("mp2", bsse_type="cp")
