MEMORY 10 GB

molecule dimer {
0 1
C    1.502411   0.470249   1.128803
C    1.541590  -0.013762  -0.297605
O    2.831098  -0.403882  -0.711589
H    3.165751  -1.047282  -0.081888
H    0.501517   0.824892   1.383414
H    2.212611   1.286431   1.276548
H    1.765583  -0.335546   1.821937
H    1.234293   0.786294  -0.976709
H    0.819922  -0.834283  -0.436808
--
0 1
C   -2.117320  -1.058556   0.527634
C   -2.064049  -0.088615  -0.618780
O   -1.636939   1.158029  -0.112424
H   -1.616464   1.798123  -0.826452
H   -2.451391  -2.041147   0.191152
H   -2.805181  -0.702538   1.296587
H   -1.129934  -1.167136   0.982792
H   -3.054484  -0.002167  -1.087464
H   -1.371285  -0.454716  -1.391316

units ang
no_reorient
no_com
symmetry c1
}

set {
basis        aug-cc-pVTZ
scf_type     df
}

energy("mp2", bsse_type="cp")
