MEMORY 10 GB

molecule dimer {
0 1
C   -1.604285   0.904735   0.815582
C   -1.613329  -0.262638  -0.137199
O   -2.903206  -0.559753  -0.625737
H   -3.485346  -0.688585   0.127148
H   -0.582036   1.146838   1.113213
H   -2.183378   0.681090   1.717452
H   -2.043517   1.785981   0.343064
H   -1.163724  -1.144697   0.344271
H   -0.995953  -0.038058  -1.010236
--
0 1
C    1.952342  -1.151209   0.460550
C    2.563812   0.055049  -0.193818
O    1.527944   0.977572  -0.454703
H    1.893312   1.751214  -0.887803
H    2.713795  -1.896737   0.694150
H    1.210476  -1.608001  -0.197857
H    1.450411  -0.867626   1.388394
H    3.071878  -0.236948  -1.123827
H    3.324938   0.497354   0.464849

units ang
no_reorient
no_com
symmetry c1
}

set {
basis        aug-cc-pVTZ
scf_type     df
}

energy("mp2", bsse_type="cp")
