MEMORY 10 GB

molecule dimer {
0 1
C    1.408102  -0.652268   0.024288
C    2.907861  -0.561872   0.018229
O    3.256630   0.800470  -0.079127
H    4.212007   0.881490  -0.080575
H    1.075837  -1.689148   0.097709
H    0.998612  -0.221592  -0.892111
H    0.998884  -0.097528   0.871496
H    3.315863  -1.135134  -0.826967
H    3.315333  -1.009035   0.936547
--
0 1
C   -1.971704   1.243959   0.058721
C   -2.162530  -0.251124   0.106251
O   -3.509689  -0.631859  -0.050231
H   -3.833955  -0.258651  -0.873672
H   -0.925121   1.514103   0.216607
H   -2.576813   1.733320   0.824279
H   -2.271704   1.643484  -0.914933
H   -1.851260  -0.644740   1.077857
H   -1.523581  -0.737624  -0.646302

units ang
no_reorient
no_com
symmetry c1
}

set {
basis        aug-cc-pVTZ
scf_type     df
}

energy("mp2", bsse_type="cp")
