MEMORY 10 GB

molecule dimer {
0 1
C    2.521503   1.163340  -0.337802
C    2.426516  -0.063692   0.523887
O    2.086643  -1.151601  -0.309039
H    2.055413  -1.952933   0.217296
H    2.780880   2.039217   0.258849
H    1.567968   1.353274  -0.835065
H    3.282709   1.030474  -1.108509
H    1.666051   0.082353   1.305854
H    3.383361  -0.244718   1.033392
--
0 1
C   -1.162206  -0.012488   0.304264
C   -2.437747  -0.279133  -0.453753
O   -3.575427   0.241443   0.195765
H   -3.440878   1.183242   0.327317
H   -0.298537  -0.461441  -0.194549
H   -1.229776  -0.415715   1.317539
H   -0.976632   1.064005   0.385188
H   -2.611313  -1.354782  -0.541506
H   -2.357366   0.110126  -1.479196

units ang
no_reorient
no_com
symmetry c1
}

set {
basis        aug-cc-pVTZ
scf_type     df
}

energy("mp2", bsse_type="cp")
