MEMORY 10 GB

molecule dimer {
0 1
C   -1.622156  -1.034011   0.723606
C   -1.747571  -0.191969  -0.519332
O   -1.849541   1.187285  -0.228957
H   -2.586585   1.315770   0.373451
H   -1.465242  -2.084267   0.470869
H   -2.522520  -0.965561   1.342356
H   -0.772502  -0.698902   1.323255
H   -2.601103  -0.525898  -1.126410
H   -0.849120  -0.305686  -1.130386
--
0 1
C    1.641844   1.231324   0.240183
C    2.023378  -0.218832   0.397284
O    1.571823  -1.020440  -0.674060
H    1.922783  -0.653804  -1.489878
H    1.995956   1.821418   1.088424
H    0.557513   1.350763   0.164426
H    2.093802   1.653399  -0.662995
H    1.564837  -0.641555   1.296139
H    3.110955  -0.319504   0.524445

units ang
no_reorient
no_com
symmetry c1
}

set {
basis        aug-cc-pVTZ
scf_type     df
}

energy("mp2", bsse_type="cp")
