MEMORY 10 GB

molecule dimer {
0 1
C   -1.686448   1.341898  -0.042337
C   -2.262488  -0.026468   0.247001
O   -1.639995  -1.048471  -0.482759
H   -0.760677  -1.193099  -0.101764
H   -2.245446   2.125623   0.474367
H   -1.715547   1.545841  -1.114785
H   -0.642230   1.412227   0.280111
H   -3.321544  -0.043902  -0.027915
H   -2.221993  -0.228649   1.328899
--
0 1
C    2.768163   0.652642  -0.020344
C    1.678194  -0.288476  -0.455531
O    1.000671  -0.866301   0.650390
H    0.848629  -0.177617   1.305383
H    3.302083   1.058364  -0.881158
H    3.487696   0.143710   0.623894
H    2.350056   1.498938   0.534905
H    2.087244  -1.126565  -1.024317
H    0.961797   0.225730  -1.111399

units ang
no_reorient
no_com
symmetry c1
}

set {
basis        aug-cc-pVTZ
scf_type     df
}

energy("mp2", bsse_type="cp")
