MEMORY 10 GB

molecule dimer {
0 1
C    1.670830  -1.097887  -0.461470
C    1.619645   0.181521   0.333312
O    2.674913   1.063326   0.017506
H    3.503479   0.593655   0.140571
H    0.813997  -1.730045  -0.219955
H    2.582489  -1.661151  -0.238303
H    1.663223  -0.884965  -1.533101
H    1.598567  -0.043374   1.409370
H    0.695258   0.724204   0.118711
--
0 1
C   -2.454579   1.119617  -0.140060
C   -2.011562  -0.288159  -0.447536
O   -1.418516  -0.922468   0.664397
H   -2.039041  -0.896367   1.397169
H   -2.877342   1.602135  -1.023446
H   -1.613294   1.720474   0.211940
H   -3.222641   1.124997   0.639218
H   -1.247577  -0.286816  -1.230912
H   -2.854302  -0.880165  -0.831960

units ang
no_reorient
no_com
symmetry c1
}

set {
basis        aug-cc-pVTZ
scf_type     df
}

energy("mp2", bsse_type="cp")
