MEMORY 10 GB

molecule dimer {
0 1
C    1.862056   1.099689  -0.494237
C    2.153424  -0.323352  -0.096233
O    1.266077  -0.794372   0.907334
H    1.314340  -0.198953   1.660400
H    2.551382   1.436913  -1.270552
H    1.970395   1.774971   0.360395
H    0.842008   1.182592  -0.875164
H    3.192826  -0.436332   0.237400
H    2.013241  -0.995254  -0.946438
--
0 1
C   -2.077708   0.940977   0.550635
C   -2.226848  -0.356201  -0.208957
O   -1.029206  -0.767024  -0.812739
H   -0.363226  -0.887019  -0.117518
H   -3.023024   1.250559   1.002007
H   -1.735270   1.737998  -0.113271
H   -1.342478   0.834299   1.354149
H   -2.958255  -0.238640  -1.014122
H   -2.622455  -1.136636   0.458708

units ang
no_reorient
no_com
symmetry c1
}

set {
basis        aug-cc-pVTZ
scf_type     df
}

energy("mp2", bsse_type="cp")
