MEMORY 10 GB

molecule dimer {
0 1
C   -3.049734   0.433855  -0.130178
C   -1.633731  -0.001616  -0.395745
O   -1.023983  -0.564458   0.756160
H   -1.565757  -1.295725   1.065474
H   -3.486902   0.899170  -1.015473
H   -3.085027   1.151817   0.691144
H   -3.679000  -0.420016   0.137809
H   -1.005772   0.849745  -0.670117
H   -1.589027  -0.707903  -1.234970
--
0 1
C    1.930412   1.262100   0.117611
C    2.458001  -0.151473   0.050541
O    1.519197  -1.052955  -0.474116
H    0.716443  -0.998360   0.066641
H    2.685782   1.951509   0.501544
H    1.060123   1.315122   0.778646
H    1.625976   1.603140  -0.874944
H    2.798071  -0.468570   1.048537
H    3.333683  -0.197821  -0.604014

units ang
no_reorient
no_com
symmetry c1
}

set {
basis        aug-cc-pVTZ
scf_type     df
}

energy("mp2", bsse_type="cp")
