MEMORY 10 GB

molecule dimer {
0 1
C   -1.340230  -1.238701  -0.247369
C   -1.813966  -0.055383   0.560776
O   -2.628598   0.815222  -0.185925
H   -2.118850   1.148555  -0.929233
H   -0.714968  -1.904102   0.354276
H   -0.756335  -0.904688  -1.113642
H   -2.186486  -1.812197  -0.629103
H   -0.954235   0.480136   0.991745
H   -2.424653  -0.391893   1.402230
--
0 1
C    1.540954   1.314974  -0.308347
C    2.019043   0.152422   0.525881
O    2.227891  -1.012069  -0.236919
H    1.390962  -1.264575  -0.637521
H    1.410523   2.212568   0.300175
H    0.575452   1.087302  -0.773428
H    2.251947   1.534796  -1.106648
H    1.315507  -0.037436   1.351327
H    2.981990   0.386431   0.986923

units ang
no_reorient
no_com
symmetry c1
}

set {
basis        aug-cc-pVTZ
scf_type     df
}

energy("mp2", bsse_type="cp")
