MEMORY 10 GB

molecule dimer {
0 1
C   -1.309712  -0.853776   0.863334
C   -1.701819  -0.227589  -0.444987
O   -2.876766   0.525994  -0.229083
H   -3.094015   0.998003  -1.034725
H   -0.412837  -1.466231   0.745249
H   -2.112986  -1.486037   1.246490
H   -1.103432  -0.080066   1.606280
H   -1.872359  -1.011301  -1.198893
H   -0.881844   0.407298  -0.806420
--
0 1
C    2.279357  -0.789068  -0.713279
C    2.149938   0.140264   0.460358
O    1.374803   1.246626   0.053159
H    1.239156   1.830443   0.801993
H    2.883538  -1.660403  -0.456081
H    2.749795  -0.277405  -1.554771
H    1.294997  -1.135167  -1.037562
H    3.144919   0.462465   0.799465
H    1.674180  -0.381532   1.303808

units ang
no_reorient
no_com
symmetry c1
}

set {
basis        aug-cc-pVTZ
scf_type     df
}

energy("mp2", bsse_type="cp")
