MEMORY 10 GB

molecule dimer {
0 1
C    1.447113   0.504977   1.091606
C    1.635198  -0.309395  -0.155937
O    2.907118  -0.011819  -0.690990
H    3.040177  -0.530152  -1.486406
H    0.472155   0.294529   1.534282
H    1.509027   1.571559   0.863457
H    2.226329   0.272116   1.819833
H    0.838755  -0.076688  -0.879678
H    1.544353  -1.379853   0.079056
--
0 1
C   -2.027932   1.165505  -0.282143
C   -2.262596  -0.307312  -0.466646
O   -1.594041  -0.990302   0.572194
H   -1.758617  -1.931289   0.488629
H   -2.554023   1.741064  -1.045218
H   -0.962905   1.398319  -0.348543
H   -2.381845   1.486145   0.699509
H   -1.888449  -0.628346  -1.450293
H   -3.340269  -0.523081  -0.445541

units ang
no_reorient
no_com
symmetry c1
}

set {
basis        aug-cc-pVTZ
scf_type     df
}

energy("mp2", bsse_type="cp")
