MEMORY 10 GB

molecule dimer {
0 1
C   -1.732810  -1.268731  -0.367624
C   -2.069534  -0.138921   0.571733
O   -2.634802   0.966272  -0.094040
H   -2.064545   1.201880  -0.830910
H   -1.322067  -2.124778   0.172076
H   -0.981882  -0.951469  -1.099656
H   -2.619791  -1.594560  -0.914044
H   -1.174693   0.160376   1.139728
H   -2.812332  -0.457922   1.307278
--
0 1
C    1.398325   1.156271  -0.143975
C    1.794865  -0.291953   0.001437
O    3.176624  -0.455459   0.209650
H    3.644650  -0.053235  -0.526357
H    0.314612   1.263583  -0.241364
H    1.857981   1.602125  -1.031019
H    1.717921   1.730622   0.727399
H    1.455032  -0.869471  -0.871841
H    1.305465  -0.733649   0.874407

units ang
no_reorient
no_com
symmetry c1
}

set {
basis        aug-cc-pVTZ
scf_type     df
}

energy("mp2", bsse_type="cp")
