MEMORY 10 GB

molecule dimer {
0 1
C    1.961236   1.130612   0.253374
C    2.127837  -0.331967  -0.067556
O    3.478073  -0.737879  -0.101090
H    3.885435  -0.487135   0.731717
H    0.905357   1.405926   0.227749
H    2.506620   1.746306  -0.464824
H    2.346453   1.356068   1.252949
H    1.725393  -0.547687  -1.061124
H    1.551409  -0.939749   0.645958
--
0 1
C   -3.531567  -0.476223   0.459530
C   -2.628547   0.404930  -0.365731
O   -1.274443   0.020449  -0.279714
H   -1.200308  -0.896139  -0.558121
H   -4.567701  -0.135197   0.411110
H   -3.215951  -0.477591   1.504500
H   -3.506330  -1.508503   0.097813
H   -2.668502   1.436402  -0.006663
H   -2.964672   0.422629  -1.412336

units ang
no_reorient
no_com
symmetry c1
}

set {
basis        aug-cc-pVTZ
scf_type     df
}

energy("mp2", bsse_type="cp")
