MEMORY 10 GB

molecule dimer {
0 1
C   -1.561199  -1.033777   0.763288
C   -1.765305  -0.232995  -0.490294
O   -1.963881   1.117319  -0.115357
H   -2.119058   1.639605  -0.904518
H   -1.349225  -2.076807   0.524120
H   -2.445053  -0.989218   1.402398
H   -0.715180  -0.635929   1.328583
H   -2.633315  -0.613137  -1.047424
H   -0.882498  -0.336163  -1.135983
--
0 1
C    1.595624   1.227825   0.308453
C    2.036644  -0.212945   0.368473
O    1.607757  -0.960660  -0.749963
H    1.968123  -0.550018  -1.540121
H    1.934300   1.777102   1.189646
H    0.505964   1.305189   0.253840
H    2.019469   1.724696  -0.570169
H    1.602558  -0.710377   1.240361
H    3.128326  -0.276867   0.482310

units ang
no_reorient
no_com
symmetry c1
}

set {
basis        aug-cc-pVTZ
scf_type     df
}

energy("mp2", bsse_type="cp")
