MEMORY 10 GB

molecule dimer {
0 1
C   -1.359238  -1.276617  -0.194769
C   -1.795535  -0.050991   0.558322
O   -2.438448   0.805954  -0.356792
H   -2.744775   1.588923   0.104506
H   -0.777921  -1.944983   0.443851
H   -0.752719  -0.984127  -1.057434
H   -2.221270  -1.824238  -0.578571
H   -0.923180   0.442868   1.012777
H   -2.468553  -0.333408   1.380240
--
0 1
C    1.510395   1.317368  -0.292271
C    2.006103   0.143513   0.515236
O    2.179281  -1.017326  -0.262173
H    1.337475  -1.228649  -0.676501
H    1.427019   2.213273   0.327594
H    0.520650   1.116582  -0.716269
H    2.193137   1.530555  -1.116883
H    1.327354  -0.048677   1.361561
H    2.985774   0.363226   0.947739

units ang
no_reorient
no_com
symmetry c1
}

set {
basis        aug-cc-pVTZ
scf_type     df
}

energy("mp2", bsse_type="cp")
