MEMORY 10 GB

molecule dimer {
0 1
C    3.091608  -0.342234   0.342496
C    1.814243   0.409338   0.088232
O    0.991026  -0.373677  -0.734281
H    0.159052   0.105580  -0.864495
H    3.767231   0.232535   0.978342
H    3.599214  -0.554477  -0.600236
H    2.880557  -1.295081   0.831645
H    2.039216   1.378884  -0.384019
H    1.317600   0.635034   1.047193
--
0 1
C   -2.437412  -1.052507  -0.034130
C   -1.988643   0.222921   0.618674
O   -1.453155   1.068303  -0.390085
H   -1.235118   1.920523  -0.005591
H   -2.870756  -1.728542   0.704209
H   -1.592558  -1.558597  -0.505015
H   -3.188197  -0.847469  -0.799105
H   -1.227429   0.010861   1.382310
H   -2.830557   0.718637   1.118065

units ang
no_reorient
no_com
symmetry c1
}

set {
basis        aug-cc-pVTZ
scf_type     df
}

energy("mp2", bsse_type="cp")
