MEMORY 10 GB

molecule dimer {
0 1
C    1.692201   1.096593  -0.243570
C    2.017833  -0.275781   0.291856
O    3.361927  -0.634928   0.075008
H    3.529878  -0.621228  -0.870503
H    0.661999   1.377762  -0.010886
H    1.805984   1.129258  -1.331396
H    2.359686   1.844763   0.188020
H    1.334107  -1.023484  -0.136677
H    1.871548  -0.305065   1.375240
--
0 1
C   -2.530674   1.107506   0.170734
C   -1.786504  -0.182798  -0.065222
O   -2.646477  -1.285557  -0.219769
H   -3.200148  -1.350483   0.562422
H   -1.842928   1.953264   0.245119
H   -3.101236   1.063683   1.103239
H   -3.230324   1.301607  -0.644293
H   -1.062389  -0.355954   0.746376
H   -1.206906  -0.123361  -0.991364

units ang
no_reorient
no_com
symmetry c1
}

set {
basis        aug-cc-pVTZ
scf_type     df
}

energy("mp2", bsse_type="cp")
