MEMORY 10 GB

molecule dimer {
0 1
C    1.919916   1.158802   0.433176
C    2.555492  -0.111534  -0.056569
O    1.547990  -0.896830  -0.655789
H    1.929343  -1.720488  -0.965149
H    2.659934   1.811678   0.898278
H    1.142518   0.939399   1.168522
H    1.455997   1.696381  -0.396440
H    3.023775  -0.646463   0.782073
H    3.353109   0.119292  -0.777244
--
0 1
C   -1.602636  -0.894208   0.874554
C   -1.614125   0.257630  -0.089116
O   -2.946481   0.465005  -0.509966
H   -2.958921   1.164519  -1.165306
H   -0.583627  -1.100036   1.206452
H   -1.995194  -1.792970   0.394912
H   -2.225105  -0.676357   1.744787
H   -0.952193   0.036233  -0.937217
H   -1.213583   1.159277   0.400096

units ang
no_reorient
no_com
symmetry c1
}

set {
basis        aug-cc-pVTZ
scf_type     df
}

energy("mp2", bsse_type="cp")
