MEMORY 10 GB

molecule dimer {
0 1
C    1.486325   1.109248  -0.165162
C    1.979991  -0.306914  -0.021338
O    3.384545  -0.389185   0.086824
H    3.660768   0.174145   0.813902
H    0.400772   1.120925  -0.279330
H    1.940906   1.590274  -1.033718
H    1.739840   1.701798   0.719820
H    1.712261  -0.891383  -0.905498
H    1.486927  -0.789242   0.834980
--
0 1
C   -2.767575   0.939875   0.100714
C   -2.657108  -0.557816   0.055521
O   -1.297474  -0.884985  -0.131992
H   -1.201066  -1.838506  -0.169116
H   -3.802784   1.250850   0.248461
H   -2.405502   1.377104  -0.831984
H   -2.165941   1.341549   0.918613
H   -3.272795  -0.957360  -0.762914
H   -3.039755  -0.993159   0.989710

units ang
no_reorient
no_com
symmetry c1
}

set {
basis        aug-cc-pVTZ
scf_type     df
}

energy("mp2", bsse_type="cp")
