MEMORY 10 GB

molecule dimer {
0 1
C    1.655811  -1.171747   0.509564
C    1.795850  -0.093145  -0.528686
O    2.003725   1.125419   0.149762
H    2.071690   1.835601  -0.491492
H    1.461846  -2.141374   0.045964
H    0.838679  -0.935019   1.198796
H    2.565024  -1.253844   1.107180
H    0.890088  -0.047115  -1.152184
H    2.636862  -0.321483  -1.198187
--
0 1
C   -1.556423   1.252588   0.087970
C   -2.276187  -0.062253   0.262607
O   -1.702117  -1.106192  -0.492968
H   -0.840962  -1.312772  -0.118603
H   -2.067779   2.051162   0.630320
H   -1.520351   1.525167  -0.969614
H   -0.528570   1.202618   0.461108
H   -3.309605   0.021323  -0.084215
H   -2.324097  -0.330739   1.327845

units ang
no_reorient
no_com
symmetry c1
}

set {
basis        aug-cc-pVTZ
scf_type     df
}

energy("mp2", bsse_type="cp")
