$molecule
0 1
--
0 1
C    2.297874   0.764775   0.613975
C    1.784055  -0.615994   0.294242
O    1.098520  -0.657345  -0.963334
H    1.710560  -0.364004  -1.645112
H    2.782641   0.768482   1.587838
H    1.476332   1.475385   0.628257
H    3.030113   1.085272  -0.125587
H    1.041193  -0.924863   1.023196
H    2.588632  -1.350869   0.297163
--
0 1
C   -1.963687  -1.001271   0.620340
C   -2.101643   0.248171  -0.219432
O   -0.893522   0.985337  -0.285551
H   -0.219109   0.399182  -0.658740
H   -2.912004  -1.532472   0.681134
H   -1.645238  -0.744079   1.627627
H   -1.227521  -1.672892   0.183054
H   -2.838739   0.917694   0.216507
H   -2.446661  -0.013225  -1.222483
$end

$rem
JOBTYPE          eda
EDA2             1
METHOD           wB97M-V
BASIS            def2-TZVPPD
SYMMETRY         false
MEM_TOTAL        50000
MEM_STATIC       10000
THRESH           14
SCF_CONVERGENCE  8
XC_GRID          000099000590
NL_GRID          1
EDA_CLS_DISP     true
FD_MAT_VEC_PROD  FALSE
$end
