$molecule
0 1
--
0 1
C    2.303132   0.769097   0.598623
C    1.771037  -0.610986   0.306818
O    1.096965  -0.672425  -0.955992
H    1.720340  -0.407252  -1.638962
H    2.779410   0.788335   1.576531
H    1.492158   1.491832   0.589266
H    3.046547   1.060996  -0.141675
H    1.016509  -0.890517   1.035624
H    2.564219  -1.357732   0.335502
--
0 1
C   -1.964227  -0.999466   0.617284
C   -2.099371   0.253092  -0.218274
O   -0.887911   0.985043  -0.286501
H   -0.219399   0.399362  -0.670419
H   -2.914596  -1.527000   0.678697
H   -1.642559  -0.746543   1.624645
H   -1.231576  -1.672479   0.176258
H   -2.831407   0.925021   0.222516
H   -2.449234  -0.003292  -1.220935
$end

$rem
JOBTYPE          eda
EDA2             1
METHOD           wB97M-V
BASIS            def2-TZVPPD
SYMMETRY         false
MEM_TOTAL        50000
MEM_STATIC       10000
THRESH           14
SCF_CONVERGENCE  8
XC_GRID          000099000590
NL_GRID          1
EDA_CLS_DISP     true
FD_MAT_VEC_PROD  FALSE
$end
