$molecule
0 1
--
0 1
C    2.297874   0.764775   0.613975
C    1.784055  -0.615994   0.294242
O    1.098520  -0.657345  -0.963334
H    1.710560  -0.364004  -1.645112
H    2.782641   0.768482   1.587838
H    1.476332   1.475385   0.628257
H    3.030113   1.085272  -0.125587
H    1.041193  -0.924863   1.023196
H    2.588632  -1.350869   0.297163
--
0 1
C   -2.173375  -0.828357   0.691686
C   -2.311331   0.421085  -0.148086
O   -1.103210   1.158251  -0.214205
H   -0.428797   0.572096  -0.587394
H   -3.121692  -1.359558   0.752480
H   -1.854926  -0.571165   1.698973
H   -1.437209  -1.499978   0.254400
H   -3.048427   1.090608   0.287853
H   -2.656349   0.159689  -1.151137
$end

$rem
JOBTYPE          eda
EDA2             1
METHOD           wB97M-V
BASIS            def2-TZVPPD
SYMMETRY         false
MEM_TOTAL        50000
MEM_STATIC       10000
THRESH           14
SCF_CONVERGENCE  8
XC_GRID          000099000590
NL_GRID          1
EDA_CLS_DISP     true
FD_MAT_VEC_PROD  FALSE
$end
