$molecule
0 1
--
0 1
C   -1.767649   1.141140   0.537872
C   -1.786873   0.182956  -0.618586
O   -1.516247  -1.119461  -0.119937
H   -1.621686  -1.760111  -0.826386
H   -1.965418   2.157701   0.194608
H   -0.792472   1.123646   1.029813
H   -2.528051   0.869967   1.272228
H   -1.031102   0.470490  -1.364029
H   -2.763484   0.199082  -1.118537
--
0 1
C    2.285895   0.915613  -0.353139
C    1.768879  -0.497323  -0.253730
O    1.082855  -0.681934   0.959196
H    0.196679  -1.015150   0.760762
H    2.878054   1.060339  -1.259586
H    2.915318   1.146003   0.508561
H    1.457880   1.629245  -0.361193
H    2.606680  -1.206254  -0.316332
H    1.113226  -0.718106  -1.108490
$end

$rem
JOBTYPE          eda
EDA2             1
METHOD           wB97M-V
BASIS            def2-TZVPPD
SYMMETRY         false
MEM_TOTAL        50000
MEM_STATIC       10000
THRESH           14
SCF_CONVERGENCE  8
XC_GRID          000099000590
NL_GRID          1
EDA_CLS_DISP     true
FD_MAT_VEC_PROD  FALSE
$end
