$molecule
0 1
--
0 1
C   -1.476290   0.806968   0.922453
C   -1.593018  -0.044148  -0.309222
O   -2.892465  -0.593232  -0.344560
H   -2.991527  -1.109285  -1.146434
H   -0.485127   1.260809   0.970032
H   -1.636387   0.205953   1.820445
H   -2.225971   1.600235   0.910180
H   -0.832252  -0.840551  -0.286052
H   -1.391080   0.562098  -1.203447
--
0 1
C    2.051333  -0.883548   0.822442
C    2.076079  -0.303211  -0.569232
O    1.686626   1.051826  -0.597927
H    2.286373   1.551607  -0.038142
H    2.325956  -1.940376   0.814701
H    1.055170  -0.788364   1.261253
H    2.758319  -0.362787   1.475107
H    1.365709  -0.828707  -1.214075
H    3.068906  -0.435747  -1.022318
$end

$rem
JOBTYPE          eda
EDA2             1
METHOD           wB97M-V
BASIS            def2-TZVPPD
SYMMETRY         false
MEM_TOTAL        50000
MEM_STATIC       10000
THRESH           14
SCF_CONVERGENCE  8
XC_GRID          000099000590
NL_GRID          1
EDA_CLS_DISP     true
FD_MAT_VEC_PROD  FALSE
$end
