$molecule
0 1
--
0 1
C   -1.287673   1.107348  -0.161796
C   -1.771164  -0.320131  -0.207370
O   -3.119167  -0.452822   0.179568
H   -3.222451  -0.056888   1.048504
H   -0.253344   1.189665  -0.507969
H   -1.328025   1.495824   0.861721
H   -1.916942   1.744166  -0.786715
H   -1.120210  -0.961277   0.408171
H   -1.713170  -0.709417  -1.227751
--
0 1
C    1.828783  -1.317613  -0.274810
C    2.034651  -0.103874   0.586182
O    2.236267   1.002002  -0.266674
H    2.411434   1.781883   0.263575
H    1.643646  -2.202420   0.336516
H    2.707555  -1.500500  -0.895422
H    0.972858  -1.172822  -0.937995
H    2.898203  -0.250761   1.249946
H    1.156065   0.054726   1.231028
$end

$rem
JOBTYPE          eda
EDA2             1
METHOD           wB97M-V
BASIS            def2-TZVPPD
SYMMETRY         false
MEM_TOTAL        50000
MEM_STATIC       10000
THRESH           14
SCF_CONVERGENCE  8
XC_GRID          000099000590
NL_GRID          1
EDA_CLS_DISP     true
FD_MAT_VEC_PROD  FALSE
$end
