$molecule
0 1
--
0 1
C   -1.293433   0.977734   0.582155
C   -1.697697  -0.119261  -0.369663
O   -3.004856  -0.591736  -0.138850
H   -3.604335   0.157887  -0.173882
H   -0.261743   1.295688   0.406944
H   -1.383760   0.637179   1.616441
H   -1.937873   1.853832   0.459971
H   -1.042307  -0.988013  -0.249493
H   -1.579452   0.220487  -1.409929
--
0 1
C    1.810897  -1.169369   0.598404
C    1.982063  -0.248703  -0.583258
O    2.118234   1.102081  -0.201091
H    2.852989   1.171537   0.413824
H    1.654232  -2.200924   0.275950
H    0.953609  -0.862743   1.202615
H    2.697885  -1.153732   1.238767
H    1.098806  -0.286698  -1.228218
H    2.833951  -0.569664  -1.199291
$end

$rem
JOBTYPE          eda
EDA2             1
METHOD           wB97M-V
BASIS            def2-TZVPPD
SYMMETRY         false
MEM_TOTAL        50000
MEM_STATIC       10000
THRESH           14
SCF_CONVERGENCE  8
XC_GRID          000099000590
NL_GRID          1
EDA_CLS_DISP     true
FD_MAT_VEC_PROD  FALSE
$end
