$molecule
0 1
--
0 1
C   -2.825279   0.590260   0.018664
C   -1.748480  -0.355750  -0.437794
O   -0.991884  -0.748233   0.679967
H   -0.124952  -1.045192   0.366962
H   -3.465444   0.891656  -0.812574
H   -2.382291   1.486317   0.459883
H   -3.448317   0.116000   0.779602
H   -1.109689   0.133620  -1.188475
H   -2.199527  -1.229700  -0.932538
--
0 1
C    1.512454   1.350659  -0.065268
C    2.324197   0.117047   0.210332
O    1.650626  -0.996929  -0.359426
H    2.190534  -1.782865  -0.252928
H    2.009402   2.232889   0.340535
H    0.524394   1.266641   0.393528
H    1.384845   1.491032  -1.140578
H    2.446890  -0.023945   1.292421
H    3.326865   0.211537  -0.225768
$end

$rem
JOBTYPE          eda
EDA2             1
METHOD           wB97M-V
BASIS            def2-TZVPPD
SYMMETRY         false
MEM_TOTAL        50000
MEM_STATIC       10000
THRESH           14
SCF_CONVERGENCE  8
XC_GRID          000099000590
NL_GRID          1
EDA_CLS_DISP     true
FD_MAT_VEC_PROD  FALSE
$end
