$molecule
0 1
--
0 1
C   -2.550850   1.111521  -0.091202
C   -1.974097  -0.128342   0.539933
O   -1.396821  -0.998413  -0.416491
H   -2.055882  -1.239114  -1.071696
H   -2.952669   1.785496   0.667649
H   -3.366905   0.860365  -0.775173
H   -1.786366   1.646324  -0.658172
H   -2.736451  -0.656425   1.127510
H   -1.161814   0.124264   1.226954
--
0 1
C    3.065717   0.620996   0.088502
C    1.674102   0.237567  -0.333580
O    1.328763  -0.959166   0.311829
H    0.452112  -1.222290  -0.000495
H    3.378400   1.553722  -0.384325
H    3.774490  -0.162459  -0.186390
H    3.111880   0.748856   1.171829
H    1.628855   0.125598  -1.427751
H    0.969585   1.045846  -0.074552
$end

$rem
JOBTYPE          eda
EDA2             1
METHOD           wB97M-V
BASIS            def2-TZVPPD
SYMMETRY         false
MEM_TOTAL        50000
MEM_STATIC       10000
THRESH           14
SCF_CONVERGENCE  8
XC_GRID          000099000590
NL_GRID          1
EDA_CLS_DISP     true
FD_MAT_VEC_PROD  FALSE
$end
