$molecule
0 1
--
0 1
C    1.242974   0.963501   0.558721
C    1.813895  -0.340386   0.063845
O    3.048254  -0.187680  -0.597193
H    3.649395   0.273686  -0.007058
H    0.278590   0.794505   1.043230
H    1.106081   1.663438  -0.268973
H    1.911902   1.430034   1.288355
H    1.139457  -0.793144  -0.670115
H    1.897200  -1.054353   0.897374
--
0 1
C   -2.644823   0.871588  -0.239888
C   -1.913498  -0.407792  -0.532074
O   -1.524869  -0.977671   0.699889
H   -1.074034  -1.808472   0.534087
H   -2.974709   1.350078  -1.163169
H   -1.996852   1.568001   0.296414
H   -3.520111   0.676993   0.382312
H   -1.034795  -0.203787  -1.163463
H   -2.560496  -1.095638  -1.094179
$end

$rem
JOBTYPE          eda
EDA2             1
METHOD           wB97M-V
BASIS            def2-TZVPPD
SYMMETRY         false
MEM_TOTAL        50000
MEM_STATIC       10000
THRESH           14
SCF_CONVERGENCE  8
XC_GRID          000099000590
NL_GRID          1
EDA_CLS_DISP     true
FD_MAT_VEC_PROD  FALSE
$end
