$molecule
0 1
--
0 1
C   -2.219378  -0.482866  -0.879492
C   -1.884927   0.597954   0.119893
O   -1.168636   0.110009   1.223636
H   -0.393754  -0.368094   0.890272
H   -2.806168  -0.086547  -1.711379
H   -2.791282  -1.281460  -0.402137
H   -1.303941  -0.920213  -1.288613
H   -2.799944   1.047955   0.516930
H   -1.333507   1.409273  -0.383592
--
0 1
C    1.708509   1.144845  -0.393781
C    2.271713  -0.196633  -0.021474
O    1.190503  -1.109310   0.076378
H    1.515485  -1.971016   0.344888
H    2.504965   1.881647  -0.504739
H    1.015425   1.495826   0.374166
H    1.165512   1.079345  -1.339514
H    2.809553  -0.133864   0.933475
H    2.987220  -0.538243  -0.780743
$end

$rem
JOBTYPE          eda
EDA2             1
METHOD           wB97M-V
BASIS            def2-TZVPPD
SYMMETRY         false
MEM_TOTAL        50000
MEM_STATIC       10000
THRESH           14
SCF_CONVERGENCE  8
XC_GRID          000099000590
NL_GRID          1
EDA_CLS_DISP     true
FD_MAT_VEC_PROD  FALSE
$end
