$molecule
0 1
--
0 1
C   -3.007846   0.331705   0.268325
C   -1.559751  -0.063793   0.358991
O   -1.089212  -0.338140  -0.932978
H   -0.188968  -0.686754  -0.853180
H   -3.415188   0.565167   1.253638
H   -3.595707  -0.477511  -0.168782
H   -3.120447   1.210167  -0.369948
H   -1.449816  -0.941703   1.015791
H   -0.981545   0.750973   0.828220
--
0 1
C    1.991645   1.192966  -0.303845
C    2.064585  -0.008651   0.594397
O    1.552021  -1.121729  -0.121357
H    1.618683  -1.910531   0.420765
H    2.371219   2.078479   0.207582
H    0.960239   1.383869  -0.609335
H    2.586189   1.032436  -1.204809
H    1.479341   0.160659   1.509069
H    3.101735  -0.199658   0.898460
$end

$rem
JOBTYPE          eda
EDA2             1
METHOD           wB97M-V
BASIS            def2-TZVPPD
SYMMETRY         false
MEM_TOTAL        50000
MEM_STATIC       10000
THRESH           14
SCF_CONVERGENCE  8
XC_GRID          000099000590
NL_GRID          1
EDA_CLS_DISP     true
FD_MAT_VEC_PROD  FALSE
$end
