$molecule
0 1
--
0 1
C   -2.241596  -1.213442   0.019299
C   -2.033926   0.202492   0.493150
O   -1.554852   1.049665  -0.527483
H   -2.164128   1.010118  -1.269039
H   -2.578892  -1.856923   0.834362
H   -1.313318  -1.624076  -0.384115
H   -2.999941  -1.253496  -0.768382
H   -1.276352   0.234498   1.282498
H   -2.960509   0.601064   0.930361
--
0 1
C    1.691556   1.182242   0.275601
C    1.516675  -0.254690  -0.141996
O    2.732470  -0.967325  -0.183222
H    3.173383  -0.855838   0.662717
H    0.736434   1.709760   0.234921
H    2.398672   1.689296  -0.384159
H    2.077835   1.248017   1.298004
H    1.097149  -0.307138  -1.149818
H    0.792479  -0.753615   0.521962
$end

$rem
JOBTYPE          eda
EDA2             1
METHOD           wB97M-V
BASIS            def2-TZVPPD
SYMMETRY         false
MEM_TOTAL        50000
MEM_STATIC       10000
THRESH           14
SCF_CONVERGENCE  8
XC_GRID          000099000590
NL_GRID          1
EDA_CLS_DISP     true
FD_MAT_VEC_PROD  FALSE
$end
