$molecule
0 1
--
0 1
C   -2.395188   0.710281  -0.552947
C   -1.768942  -0.632004  -0.282446
O   -1.121508  -0.679647   0.980245
H   -1.754348  -0.432706   1.660172
H   -2.868391   0.727584  -1.536520
H   -1.639135   1.497128  -0.519387
H   -3.166981   0.938753   0.188373
H   -0.987975  -0.845510  -1.016767
H   -2.511550  -1.436832  -0.355408
--
0 1
C    2.185819  -0.868605  -0.557657
C    2.239689   0.455397   0.166030
O    0.987006   1.085435   0.231404
H    0.360671   0.483323   0.663376
H    3.175808  -1.325233  -0.626217
H    1.798252  -0.734425  -1.570422
H    1.529461  -1.568584  -0.032447
H    2.907613   1.146107  -0.357474
H    2.664321   0.313680   1.171649
$end

$rem
JOBTYPE          eda
EDA2             1
METHOD           wB97M-V
BASIS            def2-TZVPPD
SYMMETRY         false
MEM_TOTAL        50000
MEM_STATIC       10000
THRESH           14
SCF_CONVERGENCE  8
XC_GRID          000099000590
NL_GRID          1
EDA_CLS_DISP     true
FD_MAT_VEC_PROD  FALSE
$end
