$molecule
0 1
--
0 1
C   -2.778172   0.624847   0.000826
C   -1.732809  -0.373475   0.416468
O   -0.968075  -0.716773  -0.709505
H   -0.135570  -1.103673  -0.400866
H   -3.421680   0.896470   0.839545
H   -3.402079   0.209673  -0.792979
H   -2.306398   1.531793  -0.384636
H   -2.212801  -1.262479   0.854013
H   -1.096178   0.058875   1.205825
--
0 1
C    1.581069   1.350436   0.102510
C    2.218628   0.051191  -0.316310
O    1.652807  -1.071042   0.343394
H    1.745016  -0.947480   1.292001
H    2.046475   2.194352  -0.410242
H    1.696038   1.513941   1.178677
H    0.515407   1.344252  -0.137615
H    3.303770   0.075095  -0.153453
H    2.057845  -0.126298  -1.382349
$end

$rem
JOBTYPE          eda
EDA2             1
METHOD           wB97M-V
BASIS            def2-TZVPPD
SYMMETRY         false
MEM_TOTAL        50000
MEM_STATIC       10000
THRESH           14
SCF_CONVERGENCE  8
XC_GRID          000099000590
NL_GRID          1
EDA_CLS_DISP     true
FD_MAT_VEC_PROD  FALSE
$end
