$molecule
0 1
--
0 1
C    1.635449   1.247536   0.209283
C    2.047727  -0.189239   0.362071
O    1.548480  -0.910909  -0.745314
H    1.802687  -1.831576  -0.659123
H    2.034333   1.850858   1.026500
H    0.546224   1.342934   0.213817
H    2.015073   1.650247  -0.732076
H    1.650247  -0.596450   1.304150
H    3.143129  -0.268001   0.414013
--
0 1
C   -1.590107  -1.070649   0.696464
C   -1.772602  -0.178365  -0.497818
O   -1.915449   1.148740  -0.028055
H   -1.998728   1.736540  -0.781331
H   -1.468912  -2.109922   0.386117
H   -2.449662  -1.003946   1.366223
H   -0.699281  -0.774381   1.255697
H   -2.661473  -0.484993  -1.067855
H   -0.900685  -0.269654  -1.159183
$end

$rem
JOBTYPE          eda
EDA2             1
METHOD           wB97M-V
BASIS            def2-TZVPPD
SYMMETRY         false
MEM_TOTAL        50000
MEM_STATIC       10000
THRESH           14
SCF_CONVERGENCE  8
XC_GRID          000099000590
NL_GRID          1
EDA_CLS_DISP     true
FD_MAT_VEC_PROD  FALSE
$end
