$molecule
0 1
--
0 1
C   -2.098342   0.899143   0.652061
C   -1.958638  -0.010209  -0.535834
O   -1.739915  -1.319827  -0.056070
H   -1.654998  -1.916632  -0.802169
H   -2.263640   1.930311   0.335211
H   -1.194630   0.867047   1.265258
H   -2.938590   0.588537   1.275365
H   -1.119657   0.320567  -1.166779
H   -2.865503   0.033841  -1.155338
--
0 1
C    1.597211   1.183119  -0.539916
C    1.583708   0.016477   0.407794
O    2.681822  -0.811858   0.090228
H    2.659345  -1.585314   0.656432
H    0.768742   1.863482  -0.330371
H    1.510069   0.837539  -1.572433
H    2.531866   1.739975  -0.450588
H    0.636022  -0.535344   0.322448
H    1.652082   0.378288   1.445082
$end

$rem
JOBTYPE          eda
EDA2             1
METHOD           wB97M-V
BASIS            def2-TZVPPD
SYMMETRY         false
MEM_TOTAL        50000
MEM_STATIC       10000
THRESH           14
SCF_CONVERGENCE  8
XC_GRID          000099000590
NL_GRID          1
EDA_CLS_DISP     true
FD_MAT_VEC_PROD  FALSE
$end
