$molecule
0 1
--
0 1
C    1.304294   0.360127   0.101275
C    2.514623  -0.517210  -0.088200
O    3.722704   0.211060  -0.086902
H    3.758125   0.727118   0.722329
H    0.378416  -0.218942   0.060467
H    1.267261   1.131795  -0.671121
H    1.338390   0.861527   1.074343
H    2.472433  -1.021838  -1.057015
H    2.533191  -1.307406   0.676953
--
0 1
C   -2.419983   1.192488  -0.059165
C   -3.005409  -0.190353  -0.010925
O   -1.938905  -1.112634   0.050640
H   -2.291843  -2.003829   0.075668
H   -3.207285   1.946380  -0.105419
H   -1.780487   1.306299  -0.936664
H   -1.812361   1.381413   0.828168
H   -3.625825  -0.368260  -0.900919
H   -3.661554  -0.291977   0.865400
$end

$rem
JOBTYPE          eda
EDA2             1
METHOD           wB97M-V
BASIS            def2-TZVPPD
SYMMETRY         false
MEM_TOTAL        50000
MEM_STATIC       10000
THRESH           14
SCF_CONVERGENCE  8
XC_GRID          000099000590
NL_GRID          1
EDA_CLS_DISP     true
FD_MAT_VEC_PROD  FALSE
$end
