$molecule
0 1
--
0 1
C   -1.625807   1.059484   0.634878
C   -2.134810   0.062561  -0.367521
O   -1.503556  -1.178408  -0.117601
H   -1.853884  -1.833659  -0.723908
H   -2.131355   2.018747   0.511181
H   -0.552167   1.223174   0.512937
H   -1.811479   0.701238   1.649803
H   -1.916676   0.411376  -1.387910
H   -3.226488  -0.037051  -0.285713
--
0 1
C    1.829110  -0.956948   0.707802
C    1.684364  -0.165801  -0.565959
O    1.716030   1.229112  -0.342372
H    2.511858   1.436374   0.154053
H    1.762317  -2.028976   0.511733
H    1.036444  -0.694057   1.410849
H    2.795718  -0.763017   1.184059
H    0.712375  -0.376648  -1.020251
H    2.456407  -0.458908  -1.292244
$end

$rem
JOBTYPE          eda
EDA2             1
METHOD           wB97M-V
BASIS            def2-TZVPPD
SYMMETRY         false
MEM_TOTAL        50000
MEM_STATIC       10000
THRESH           14
SCF_CONVERGENCE  8
XC_GRID          000099000590
NL_GRID          1
EDA_CLS_DISP     true
FD_MAT_VEC_PROD  FALSE
$end
