$molecule
0 1
--
0 1
C   -2.155164  -0.955565   0.208662
C   -1.631256   0.226947  -0.556077
O   -1.450840   1.288410   0.360837
H   -1.083716   2.042894  -0.104265
H   -2.299215  -1.811793  -0.452297
H   -3.109149  -0.718332   0.683083
H   -1.453477  -1.239614   0.996988
H   -2.341754   0.510467  -1.345522
H   -0.682472  -0.038588  -1.043697
--
0 1
C    2.155265   0.955548  -0.208559
C    1.631287  -0.226997   0.556078
O    1.450717  -1.288342  -0.360942
H    1.083422  -2.042797   0.104070
H    2.299530   1.811659   0.452504
H    1.453509   1.239816  -0.996743
H    3.109152   0.718241  -0.683140
H    0.682556   0.038576   1.043780
H    2.341799  -0.510676   1.345454
$end

$rem
JOBTYPE          eda
EDA2             1
METHOD           wB97M-V
BASIS            def2-TZVPPD
SYMMETRY         false
MEM_TOTAL        50000
MEM_STATIC       10000
THRESH           14
SCF_CONVERGENCE  8
XC_GRID          000099000590
NL_GRID          1
EDA_CLS_DISP     true
FD_MAT_VEC_PROD  FALSE
$end
