$molecule
0 1
--
0 1
C   -1.996943   0.956004   0.584861
C   -2.232015  -0.351656  -0.132587
O   -1.109857  -0.777828  -0.860710
H   -0.364786  -0.863805  -0.245421
H   -2.886970   1.273319   1.133176
H   -1.732546   1.741938  -0.126468
H   -1.175299   0.859544   1.300322
H   -3.048917  -0.247609  -0.853104
H   -2.550425  -1.120063   0.588861
--
0 1
C    1.740731   1.156265  -0.426737
C    2.240365  -0.208929  -0.050019
O    1.262325  -0.825552   0.776306
H    1.580138  -1.687319   1.054270
H    2.468113   1.668618  -1.057893
H    1.571017   1.761794   0.465829
H    0.799038   1.079626  -0.974589
H    3.194372  -0.136309   0.487701
H    2.413697  -0.812794  -0.950564
$end

$rem
JOBTYPE          eda
EDA2             1
METHOD           wB97M-V
BASIS            def2-TZVPPD
SYMMETRY         false
MEM_TOTAL        50000
MEM_STATIC       10000
THRESH           14
SCF_CONVERGENCE  8
XC_GRID          000099000590
NL_GRID          1
EDA_CLS_DISP     true
FD_MAT_VEC_PROD  FALSE
$end
