$molecule
0 1
--
0 1
C    2.705068   0.610720  -0.064798
C    1.873022  -0.533017   0.462467
O    0.955402  -1.011338  -0.487410
H    0.348527  -0.282121  -0.686811
H    3.433977   0.947011   0.676255
H    2.065278   1.460338  -0.318595
H    3.241542   0.307945  -0.966339
H    1.358681  -0.221092   1.386265
H    2.512259  -1.378805   0.732867
--
0 1
C   -2.651856  -0.648398  -0.121827
C   -1.810098   0.386372   0.576450
O   -0.952614   1.076867  -0.319209
H   -1.485289   1.478530  -1.010883
H   -3.285694  -1.180235   0.590143
H   -2.016952  -1.377996  -0.628281
H   -3.306972  -0.184647  -0.865432
H   -1.147403  -0.087825   1.304799
H   -2.437075   1.100605   1.125209
$end

$rem
JOBTYPE          eda
EDA2             1
METHOD           wB97M-V
BASIS            def2-TZVPPD
SYMMETRY         false
MEM_TOTAL        50000
MEM_STATIC       10000
THRESH           14
SCF_CONVERGENCE  8
XC_GRID          000099000590
NL_GRID          1
EDA_CLS_DISP     true
FD_MAT_VEC_PROD  FALSE
$end
