$molecule
0 1
--
0 1
C    1.974603   1.240004  -0.086538
C    2.429081  -0.175606   0.167570
O    1.552014  -1.135343  -0.377610
H    1.457663  -0.963065  -1.318322
H    2.668199   1.961348   0.350216
H    0.984069   1.410923   0.341278
H    1.917815   1.443984  -1.160355
H    2.459990  -0.378546   1.241808
H    3.451501  -0.320847  -0.209464
--
0 1
C   -1.368389  -0.207777   1.160841
C   -1.681259  -0.174613  -0.312999
O   -2.993584   0.262357  -0.584871
H   -3.122636   1.110702  -0.153512
H   -0.365166  -0.605456   1.327451
H   -2.087134  -0.834449   1.692440
H   -1.413450   0.797739   1.593083
H   -1.601195  -1.178377  -0.738026
H   -0.941314   0.447882  -0.839997
$end

$rem
JOBTYPE          eda
EDA2             1
METHOD           wB97M-V
BASIS            def2-TZVPPD
SYMMETRY         false
MEM_TOTAL        50000
MEM_STATIC       10000
THRESH           14
SCF_CONVERGENCE  8
XC_GRID          000099000590
NL_GRID          1
EDA_CLS_DISP     true
FD_MAT_VEC_PROD  FALSE
$end
