$molecule
0 1
--
0 1
C    1.482875   0.599326   1.057575
C    1.592743  -0.337024  -0.117878
O    2.745067  -0.104602  -0.897001
H    3.510171  -0.141707  -0.317682
H    0.553069   0.421665   1.601202
H    1.501320   1.639267   0.722795
H    2.316519   0.455528   1.752186
H    0.740222  -0.202261  -0.789559
H    1.552188  -1.380872   0.226783
--
0 1
C   -2.064222   1.139739  -0.315893
C   -2.183250  -0.350811  -0.463909
O   -1.554399  -0.950237   0.649269
H   -1.620092  -1.903905   0.571784
H   -2.557850   1.653322  -1.142146
H   -1.014800   1.441947  -0.301056
H   -2.522953   1.466473   0.619203
H   -1.710337  -0.675620  -1.402614
H   -3.241673  -0.642500  -0.518410
$end

$rem
JOBTYPE          eda
EDA2             1
METHOD           wB97M-V
BASIS            def2-TZVPPD
SYMMETRY         false
MEM_TOTAL        50000
MEM_STATIC       10000
THRESH           14
SCF_CONVERGENCE  8
XC_GRID          000099000590
NL_GRID          1
EDA_CLS_DISP     true
FD_MAT_VEC_PROD  FALSE
$end
