$molecule
0 1
--
0 1
C    2.380420   1.099443  -0.153296
C    1.968206  -0.101300   0.656339
O    1.482200  -1.158100  -0.156642
H    2.162096  -1.396010  -0.792774
H    2.728678   1.905816   0.494852
H    1.537414   1.468596  -0.740638
H    3.197024   0.849300  -0.837255
H    1.142953   0.153809   1.325995
H    2.794870  -0.457704   1.284110
--
0 1
C   -3.074330   0.469154   0.266295
C   -1.887023  -0.446254   0.149997
O   -0.976330   0.118321  -0.758439
H   -0.171906  -0.421713  -0.755292
H   -3.817331   0.064265   0.955672
H   -3.545282   0.603664  -0.709441
H   -2.764939   1.452055   0.627231
H   -2.213377  -1.442299  -0.185903
H   -1.420797  -0.587804   1.138083
$end

$rem
JOBTYPE          eda
EDA2             1
METHOD           wB97M-V
BASIS            def2-TZVPPD
SYMMETRY         false
MEM_TOTAL        50000
MEM_STATIC       10000
THRESH           14
SCF_CONVERGENCE  8
XC_GRID          000099000590
NL_GRID          1
EDA_CLS_DISP     true
FD_MAT_VEC_PROD  FALSE
$end
