$molecule
0 1
--
0 1
C   -2.998340   0.550351   0.040756
C   -1.535899   0.271909  -0.173320
O   -1.275460  -1.053816   0.198153
H   -0.364241  -1.261540  -0.052863
H   -3.247098   1.580018  -0.222343
H   -3.264821   0.385862   1.086613
H   -3.605355  -0.121481  -0.568933
H   -0.933239   0.978643   0.423478
H   -1.268196   0.449168  -1.227401
--
0 1
C    2.149700   1.251481  -0.129031
C    2.027911  -0.099264   0.526088
O    1.515186  -1.081555  -0.355977
H    2.038153  -1.088784  -1.161518
H    2.510688   1.998978   0.579727
H    1.181988   1.580481  -0.514378
H    2.856407   1.220053  -0.963699
H    1.323546  -0.063289   1.361837
H    2.994125  -0.422006   0.935112
$end

$rem
JOBTYPE          eda
EDA2             1
METHOD           wB97M-V
BASIS            def2-TZVPPD
SYMMETRY         false
MEM_TOTAL        50000
MEM_STATIC       10000
THRESH           14
SCF_CONVERGENCE  8
XC_GRID          000099000590
NL_GRID          1
EDA_CLS_DISP     true
FD_MAT_VEC_PROD  FALSE
$end
