$molecule
0 1
--
0 1
C   -2.030209   0.997443  -0.592376
C   -1.989538  -0.031828   0.501206
O   -1.814960  -1.297402  -0.098206
H   -1.828193  -1.971728   0.583684
H   -2.150918   1.999901  -0.178206
H   -2.860130   0.800002  -1.272927
H   -1.104947   0.974569  -1.172596
H   -2.918904   0.000104   1.087134
H   -1.163856   0.188909   1.195581
--
0 1
C    1.633417   1.259863   0.300772
C    1.550833  -0.238458   0.213553
O    2.729829  -0.701850  -0.406992
H    2.645768  -1.642561  -0.571650
H    0.748347   1.670689   0.791741
H    1.707554   1.695977  -0.697447
H    2.515552   1.563226   0.867642
H    0.658644  -0.540506  -0.353616
H    1.445112  -0.666676   1.223317
$end

$rem
JOBTYPE          eda
EDA2             1
METHOD           wB97M-V
BASIS            def2-TZVPPD
SYMMETRY         false
MEM_TOTAL        50000
MEM_STATIC       10000
THRESH           14
SCF_CONVERGENCE  8
XC_GRID          000099000590
NL_GRID          1
EDA_CLS_DISP     true
FD_MAT_VEC_PROD  FALSE
$end
