$molecule
0 1
--
0 1
C    1.736154   1.238757   0.375694
C    1.521043  -0.159274  -0.147723
O    2.720729  -0.874008  -0.309755
H    3.169352  -0.911023   0.538811
H    0.792842   1.786930   0.438143
H    2.414846   1.791397  -0.276413
H    2.172872   1.216265   1.378374
H    1.060936  -0.122646  -1.140929
H    0.823530  -0.702931   0.509934
--
0 1
C   -2.070588   0.965155  -0.611134
C   -2.033735  -0.009255   0.539494
O   -1.945950  -1.347923   0.114101
H   -1.164276  -1.440974  -0.438262
H   -2.170445   1.993285  -0.255787
H   -2.907778   0.745029  -1.275961
H   -1.149275   0.906696  -1.200147
H   -2.952173   0.058504   1.128187
H   -1.205904   0.242618   1.221299
$end

$rem
JOBTYPE          eda
EDA2             1
METHOD           wB97M-V
BASIS            def2-TZVPPD
SYMMETRY         false
MEM_TOTAL        50000
MEM_STATIC       10000
THRESH           14
SCF_CONVERGENCE  8
XC_GRID          000099000590
NL_GRID          1
EDA_CLS_DISP     true
FD_MAT_VEC_PROD  FALSE
$end
