$molecule
0 1
--
0 1
C   -1.976023   0.746718   0.790972
C   -1.792710   0.038582  -0.526085
O   -1.227247  -1.248106  -0.370351
H   -1.796923  -1.759699   0.209561
H   -2.400634   1.742179   0.645312
H   -1.012510   0.856037   1.292757
H   -2.651909   0.189921   1.447987
H   -1.093704   0.597995  -1.152012
H   -2.746235  -0.021497  -1.070103
--
0 1
C    1.976026  -0.746717   0.790972
C    1.792708  -0.038583  -0.526087
O    1.227246   1.248105  -0.370352
H    1.796925   1.759702   0.209554
H    2.400642  -1.742175   0.645313
H    1.012514  -0.856039   1.292757
H    2.651910  -0.189913   1.447983
H    1.093696  -0.597994  -1.152008
H    2.746232   0.021493  -1.070106
$end

$rem
JOBTYPE          eda
EDA2             1
METHOD           wB97M-V
BASIS            def2-TZVPPD
SYMMETRY         false
MEM_TOTAL        50000
MEM_STATIC       10000
THRESH           14
SCF_CONVERGENCE  8
XC_GRID          000099000590
NL_GRID          1
EDA_CLS_DISP     true
FD_MAT_VEC_PROD  FALSE
$end
